% demand
num_movements = 21;
loading_factor = [1650, 1250, 850, 1250, 1900, 1450, 1800, 1100, 1050, 1650, 1350, 1050, 1800, 1450, 1800, 1000, 1150, 1600, 1250, 1550, 1500];
pickup_time = [0, 0, 0, 0, 0, 2, 2, 3, 4, 4, 4, 4, 4, 5, 5, 6, 7, 7, 11, 12, 12];
delivery_time = [1, 3, 1, 2, 3, 4, 4, 4, 14, 14, 5, 6, 5, 6, 6, 10, 10, 10, 14, 14, 14];

% transporter definition
total_capacity = 7000;
num_decks = 3;
capacity = [3000, 1000, 3000];

% ways out of decks
num_ways_out = 1;
paths_out = array3d(decks, ways_out, decks, [
% ways out of deck d1
2, 3, 0, 

% ways out of deck d2
3, 0, 0, 

% ways out of deck d3
0, 0, 0,	

]);

